c FILE /home/rafael/Documents/HappySet/MIHS/inputs/happygen/output/graph_scale_free_k5_p0.2_v100_20241127_083840.txt
c SOURCE This is a scale-free graph formed for the happy graph colouring problem.
c DESCRIPTION It was generated using the problem generator of Rhyd Lewis
c
c GRAPH STATS
c Seed                             = 1354294045
c Number of Nodes                  = 100
c Number of colours k              = 5
c Number of pre-assignments        = 20
c Number of links per new node     = 5
c Density                          = 0.0979798
c 
c The degrees of nodes 1 to 100, respectively, are as follows 
c [37, 36, 31, 28, 26, 25, 23, 22, 20, 20, 19, 19, 17, 17, 17, 16, 16, 14, 14, 14, 13, 13, 12, 12, 11, 11, 
c  11, 10, 10, 9, 9, 8, 8, 8, 8, 8, 8, 8, 8, 8, 7, 7, 7, 7, 7, 7, 7, 7, 7, 7, 7, 
c  7, 7, 6, 6, 6, 6, 6, 6, 6, 6, 6, 6, 6, 6, 6, 6, 6, 6, 6, 6, 6, 6, 5, 5, 5, 
c  5, 5, 5, 5, 5, 5, 5, 5, 5, 5, 5, 5, 5, 5, 5, 5, 5, 5, 5, 5, 5, 5, 5, 5] 
c  
p edge 100 485 5
e 1 2
e 1 4
e 1 5
e 1 6
e 1 7
e 1 8
e 1 10
e 1 11
e 1 12
e 1 15
e 1 16
e 1 20
e 1 23
e 1 25
e 1 28
e 1 30
e 1 33
e 1 36
e 1 37
e 1 38
e 1 43
e 1 46
e 1 48
e 1 49
e 1 50
e 1 61
e 1 64
e 1 66
e 1 70
e 1 73
e 1 74
e 1 75
e 1 77
e 1 78
e 1 89
e 1 96
e 1 99
e 2 4
e 2 5
e 2 6
e 2 7
e 2 8
e 2 9
e 2 10
e 2 11
e 2 12
e 2 16
e 2 18
e 2 21
e 2 24
e 2 28
e 2 30
e 2 31
e 2 35
e 2 39
e 2 41
e 2 42
e 2 47
e 2 51
e 2 53
e 2 54
e 2 55
e 2 57
e 2 66
e 2 70
e 2 76
e 2 82
e 2 83
e 2 86
e 2 90
e 2 93
e 2 100
e 3 4
e 3 5
e 3 7
e 3 8
e 3 9
e 3 13
e 3 15
e 3 19
e 3 28
e 3 30
e 3 31
e 3 32
e 3 37
e 3 40
e 3 42
e 3 46
e 3 48
e 3 50
e 3 59
e 3 61
e 3 63
e 3 70
e 3 71
e 3 74
e 3 75
e 3 77
e 3 78
e 3 81
e 3 85
e 3 88
e 3 92
e 4 5
e 4 6
e 4 8
e 4 9
e 4 10
e 4 11
e 4 13
e 4 18
e 4 20
e 4 22
e 4 30
e 4 32
e 4 34
e 4 40
e 4 43
e 4 47
e 4 48
e 4 56
e 4 58
e 4 60
e 4 70
e 4 72
e 4 73
e 4 89
e 4 93
e 5 6
e 5 7
e 5 8
e 5 12
e 5 13
e 5 16
e 5 19
e 5 22
e 5 23
e 5 24
e 5 25
e 5 26
e 5 32
e 5 34
e 5 47
e 5 49
e 5 55
e 5 56
e 5 65
e 5 79
e 5 87
e 5 89
e 6 7
e 6 8
e 6 11
e 6 13
e 6 14
e 6 17
e 6 18
e 6 23
e 6 25
e 6 34
e 6 38
e 6 42
e 6 43
e 6 45
e 6 57
e 6 58
e 6 60
e 6 67
e 6 75
e 6 97
e 6 99
e 7 9
e 7 11
e 7 14
e 7 16
e 7 18
e 7 20
e 7 32
e 7 59
e 7 65
e 7 66
e 7 67
e 7 73
e 7 75
e 7 76
e 7 78
e 7 80
e 7 89
e 7 94
e 8 10
e 8 11
e 8 12
e 8 19
e 8 25
e 8 27
e 8 33
e 8 36
e 8 41
e 8 47
e 8 56
e 8 66
e 8 75
e 8 84
e 8 87
e 8 98
e 9 11
e 9 12
e 9 16
e 9 22
e 9 31
e 9 45
e 9 46
e 9 50
e 9 52
e 9 53
e 9 54
e 9 55
e 9 74
e 9 80
e 9 87
e 9 98
e 10 15
e 10 16
e 10 19
e 10 21
e 10 50
e 10 59
e 10 60
e 10 63
e 10 65
e 10 69
e 10 77
e 10 79
e 10 80
e 10 90
e 10 95
e 10 97
e 11 12
e 11 14
e 11 19
e 11 29
e 11 30
e 11 43
e 11 44
e 11 54
e 11 62
e 11 80
e 11 88
e 11 99
e 12 13
e 12 14
e 12 17
e 12 18
e 12 45
e 12 46
e 12 47
e 12 58
e 12 69
e 12 71
e 12 82
e 12 84
e 12 91
e 13 14
e 13 17
e 13 21
e 13 23
e 13 27
e 13 42
e 13 51
e 13 53
e 13 64
e 13 67
e 13 73
e 13 99
e 14 15
e 14 17
e 14 21
e 14 26
e 14 33
e 14 54
e 14 62
e 14 69
e 14 76
e 14 83
e 14 96
e 14 100
e 15 19
e 15 22
e 15 24
e 15 27
e 15 33
e 15 39
e 15 51
e 15 59
e 15 61
e 15 64
e 15 67
e 15 79
e 15 82
e 16 20
e 16 25
e 16 36
e 16 40
e 16 41
e 16 45
e 16 50
e 16 55
e 16 81
e 16 93
e 17 18
e 17 20
e 17 26
e 17 32
e 17 35
e 17 43
e 17 44
e 17 69
e 17 74
e 17 76
e 17 87
e 17 96
e 18 23
e 18 28
e 18 39
e 18 42
e 18 44
e 18 48
e 18 53
e 18 92
e 19 21
e 19 34
e 19 35
e 19 41
e 19 51
e 19 71
e 19 83
e 19 92
e 20 35
e 20 36
e 20 39
e 20 44
e 20 45
e 20 57
e 20 62
e 20 72
e 20 95
e 21 40
e 21 41
e 21 49
e 21 54
e 21 56
e 21 65
e 21 89
e 21 98
e 22 38
e 22 52
e 22 56
e 22 60
e 22 61
e 22 64
e 22 68
e 22 72
e 22 94
e 23 27
e 23 29
e 23 51
e 23 81
e 23 87
e 23 95
e 23 100
e 24 31
e 24 43
e 24 52
e 24 58
e 24 61
e 24 62
e 24 79
e 24 81
e 24 97
e 25 28
e 25 29
e 25 46
e 25 56
e 25 58
e 25 96
e 26 30
e 26 32
e 26 37
e 26 38
e 26 63
e 26 71
e 26 84
e 26 88
e 27 30
e 27 59
e 27 60
e 27 68
e 27 74
e 27 84
e 27 90
e 28 29
e 28 33
e 28 34
e 28 44
e 28 80
e 29 33
e 29 35
e 29 62
e 29 65
e 29 86
e 29 88
e 30 55
e 30 91
e 31 34
e 31 36
e 31 78
e 31 85
e 31 94
e 32 57
e 32 91
e 33 37
e 33 58
e 34 57
e 34 84
e 35 49
e 35 66
e 35 95
e 36 63
e 36 71
e 36 90
e 37 46
e 37 64
e 37 85
e 37 94
e 38 42
e 38 73
e 38 86
e 38 91
e 39 60
e 39 82
e 39 83
e 39 97
e 40 68
e 40 85
e 40 95
e 40 96
e 41 52
e 41 94
e 42 76
e 43 90
e 44 49
e 44 97
e 45 83
e 45 86
e 46 67
e 47 79
e 47 93
e 48 57
e 48 68
e 48 77
e 49 72
e 49 77
e 50 68
e 50 78
e 51 70
e 51 100
e 52 53
e 52 64
e 52 92
e 53 98
e 53 99
e 54 86
e 55 81
e 59 68
e 61 88
e 62 63
e 63 91
e 65 100
e 66 98
e 67 69
e 69 82
e 70 72
e 71 85
e 72 92
e 73 93
n 10 1
n 14 3
n 18 5
n 36 2
n 37 1
n 41 4
n 47 1
n 48 5
n 52 4
n 60 1
n 61 2
n 67 5
n 71 2
n 72 4
n 79 1
n 82 1
n 89 1
n 95 1
n 99 2
n 100 3
